n = 50;
C = 6375;
w = [354,28,498,474,125,267,165,39,183,489,253,152,160,263,433,86,3,196,445,158,8,73,323,191,273,486,406,497,462,235,418,409,145,383,42,342,254,12,157,325,188,73,266,326,154,228,495,257,127,425];
p = [334,-7,529,426,151,225,122,22,214,441,286,128,121,268,445,96,25,242,474,183,-39,45,366,202,234,533,359,471,470,281,419,421,155,364,-8,311,297,51,159,302,193,109,250,289,125,232,538,208,154,471];
